# IMPORTANT - THE STAGES ARE ASSUMED TO BE IN TIME-ORDER.
set Stages := 
FirstStage 
SecondStage ;

set Nodes:= 
RootNode
Node1
Node2
Node3
Node4
Node5
Node6
Node7
Node8
Node9;

param NodeStage:=

RootNode  FirstStage
Node1     SecondStage 
Node2     SecondStage        
Node3     SecondStage        
Node4     SecondStage        
Node5     SecondStage
Node6    SecondStage
Node7     SecondStage
Node8     SecondStage
Node9     SecondStage;

set Children[RootNode] :=  
Node1
Node2
Node3
Node4
Node5
Node6
Node7
Node8
Node9;

param ConditionalProbability :=
RootNode 1.0
Node1    0.1111
Node2    0.1111
Node3    0.1111
Node4    0.1111
Node5    0.1111
Node6    0.1112
Node7    0.1111
Node8    0.1111
Node9    0.1111;

set Scenarios:=
Scenario1
Scenario2   
Scenario3
Scenario4 
Scenario5
Scenario6
Scenario7
Scenario8
Scenario9;

param ScenarioLeafNode := 
Scenario1 Node1
Scenario2 Node2
Scenario3 Node3
Scenario4 Node4
Scenario5 Node5
Scenario6 Node6
Scenario7 Node7
Scenario8 Node8
Scenario9 Node9;

set StageVariables[FirstStage]:=
ShiftDay[*];

set StageVariables[SecondStage]:=
OTScenario[*,*];

param StageCostVariable:= 
FirstStage FirstStageCost
SecondStage SecondStageCost;

           